p cnf 49 315
8 0
15 0
22 0
29 0
36 0
43 0
16 0
23 0
30 0
37 0
44 0
24 0
31 0
38 0
45 0
32 0
39 0
46 0
40 0
47 0
48 0
-8 -16 15 0
-8 -23 22 0
-8 -30 29 0
-8 -37 36 0
-8 -44 43 0
-15 -10 8 0
-15 -24 22 0
-15 -31 29 0
-15 -38 36 0
-15 -45 43 0
-22 -11 8 0
-22 -18 15 0
-22 -32 29 0
-22 -39 36 0
-22 -46 43 0
-29 -12 8 0
-29 -19 15 0
-29 -26 22 0
-29 -40 36 0
-29 -47 43 0
-36 -13 8 0
-36 -20 15 0
-36 -27 22 0
-36 -34 29 0
-36 -48 43 0
-43 -14 8 0
-43 -21 15 0
-43 -28 22 0
-43 -35 29 0
-43 -42 36 0
-2 -15 16 0
-2 -22 23 0
-2 -29 30 0
-2 -36 37 0
-2 -43 44 0
-16 -3 2 0
-16 -24 23 0
-16 -31 30 0
-16 -38 37 0
-16 -45 44 0
-23 -4 2 0
-23 -18 16 0
-23 -32 30 0
-23 -39 37 0
-23 -46 44 0
-30 -5 2 0
-30 -19 16 0
-30 -26 23 0
-30 -40 37 0
-30 -47 44 0
-37 -6 2 0
-37 -20 16 0
-37 -27 23 0
-37 -34 30 0
-37 -48 44 0
-44 -7 2 0
-44 -21 16 0
-44 -28 23 0
-44 -35 30 0
-44 -42 37 0
-3 -8 10 0
-3 -22 24 0
-3 -29 31 0
-3 -36 38 0
-3 -43 45 0
-10 -2 3 0
-10 -23 24 0
-10 -30 31 0
-10 -37 38 0
-10 -44 45 0
-24 -4 3 0
-24 -11 10 0
-24 -32 31 0
-24 -39 38 0
-24 -46 45 0
-31 -5 3 0
-31 -12 10 0
-31 -26 24 0
-31 -40 38 0
-31 -47 45 0
-38 -6 3 0
-38 -13 10 0
-38 -27 24 0
-38 -34 31 0
-38 -48 45 0
-45 -7 3 0
-45 -14 10 0
-45 -28 24 0
-45 -35 31 0
-45 -42 38 0
-4 -8 11 0
-4 -15 18 0
-4 -29 32 0
-4 -36 39 0
-4 -43 46 0
-11 -2 4 0
-11 -16 18 0
-11 -30 32 0
-11 -37 39 0
-11 -44 46 0
-18 -3 4 0
-18 -10 11 0
-18 -31 32 0
-18 -38 39 0
-18 -45 46 0
-32 -5 4 0
-32 -12 11 0
-32 -19 18 0
-32 -40 39 0
-32 -47 46 0
-39 -6 4 0
-39 -13 11 0
-39 -20 18 0
-39 -34 32 0
-39 -48 46 0
-46 -7 4 0
-46 -14 11 0
-46 -21 18 0
-46 -35 32 0
-46 -42 39 0
-5 -8 12 0
-5 -15 19 0
-5 -22 26 0
-5 -36 40 0
-5 -43 47 0
-12 -2 5 0
-12 -16 19 0
-12 -23 26 0
-12 -37 40 0
-12 -44 47 0
-19 -3 5 0
-19 -10 12 0
-19 -24 26 0
-19 -38 40 0
-19 -45 47 0
-26 -4 5 0
-26 -11 12 0
-26 -18 19 0
-26 -39 40 0
-26 -46 47 0
-40 -6 5 0
-40 -13 12 0
-40 -20 19 0
-40 -27 26 0
-40 -48 47 0
-47 -7 5 0
-47 -14 12 0
-47 -21 19 0
-47 -28 26 0
-47 -42 40 0
-6 -8 13 0
-6 -15 20 0
-6 -22 27 0
-6 -29 34 0
-6 -43 48 0
-13 -2 6 0
-13 -16 20 0
-13 -23 27 0
-13 -30 34 0
-13 -44 48 0
-20 -3 6 0
-20 -10 13 0
-20 -24 27 0
-20 -31 34 0
-20 -45 48 0
-27 -4 6 0
-27 -11 13 0
-27 -18 20 0
-27 -32 34 0
-27 -46 48 0
-34 -5 6 0
-34 -12 13 0
-34 -19 20 0
-34 -26 27 0
-34 -47 48 0
-48 -7 6 0
-48 -14 13 0
-48 -21 20 0
-48 -28 27 0
-48 -35 34 0
-7 -8 14 0
-7 -15 21 0
-7 -22 28 0
-7 -29 35 0
-7 -36 42 0
-14 -2 7 0
-14 -16 21 0
-14 -23 28 0
-14 -30 35 0
-14 -37 42 0
-21 -3 7 0
-21 -10 14 0
-21 -24 28 0
-21 -31 35 0
-21 -38 42 0
-28 -4 7 0
-28 -11 14 0
-28 -18 21 0
-28 -32 35 0
-28 -39 42 0
-35 -5 7 0
-35 -12 14 0
-35 -19 21 0
-35 -26 28 0
-35 -40 42 0
-42 -6 7 0
-42 -13 14 0
-42 -20 21 0
-42 -27 28 0
-42 -34 35 0
8 2 0
-8 -2 0
15 3 0
-15 -3 0
22 4 0
-22 -4 0
29 5 0
-29 -5 0
36 6 0
-36 -6 0
43 7 0
-43 -7 0
2 8 0
-2 -8 0
16 10 0
-16 -10 0
23 11 0
-23 -11 0
30 12 0
-30 -12 0
37 13 0
-37 -13 0
44 14 0
-44 -14 0
3 15 0
-3 -15 0
10 16 0
-10 -16 0
24 18 0
-24 -18 0
31 19 0
-31 -19 0
38 20 0
-38 -20 0
45 21 0
-45 -21 0
4 22 0
-4 -22 0
11 23 0
-11 -23 0
18 24 0
-18 -24 0
32 26 0
-32 -26 0
39 27 0
-39 -27 0
46 28 0
-46 -28 0
5 29 0
-5 -29 0
12 30 0
-12 -30 0
19 31 0
-19 -31 0
26 32 0
-26 -32 0
40 34 0
-40 -34 0
47 35 0
-47 -35 0
6 36 0
-6 -36 0
13 37 0
-13 -37 0
20 38 0
-20 -38 0
27 39 0
-27 -39 0
34 40 0
-34 -40 0
48 42 0
-48 -42 0
7 43 0
-7 -43 0
14 44 0
-14 -44 0
21 45 0
-21 -45 0
28 46 0
-28 -46 0
35 47 0
-35 -47 0
42 48 0
-42 -48 0